
******************************************************************************
This program contains Ipopt, a library for large-scale nonlinear optimization.
 Ipopt is released as open source code under the Eclipse Public License (EPL).
         For more information visit http://projects.coin-or.org/Ipopt

This version of Ipopt was compiled from source code available at
    https://github.com/IDAES/Ipopt as part of the Institute for the Design of
    Advanced Energy Systems Process Systems Engineering Framework (IDAES PSE
    Framework) Copyright (c) 2018-2019. See https://github.com/IDAES/idaes-pse.

This version of Ipopt was compiled using HSL, a collection of Fortran codes
    for large-scale scientific computation.  All technical papers, sales and
    publicity material resulting from use of the HSL codes within IPOPT must
    contain the following acknowledgement:
        HSL, a collection of Fortran codes for large-scale scientific
        computation. See http://www.hsl.rl.ac.uk.
******************************************************************************

This is Ipopt version 3.13.2, running with linear solver ma27.

Number of nonzeros in equality constraint Jacobian...:      928
Number of nonzeros in inequality constraint Jacobian.:        0
Number of nonzeros in Lagrangian Hessian.............:      806

Total number of variables............................:      403
                     variables with only lower bounds:      124
                variables with lower and upper bounds:      217
                     variables with only upper bounds:        0
Total number of equality constraints.................:      402
Total number of inequality constraints...............:        0
        inequality constraints with only lower bounds:        0
   inequality constraints with lower and upper bounds:        0
        inequality constraints with only upper bounds:        0

iter    objective    inf_pr   inf_du lg(mu)  ||d||  lg(rg) alpha_du alpha_pr  ls
   0  0.0000000e+00 1.17e+00 1.33e-15  -1.0 0.00e+00    -  0.00e+00 0.00e+00   0
   1  8.9849589e-01 8.71e-01 3.07e+04  -1.0 1.97e+05    -  4.58e-01 3.00e-01h  1
   2  9.4376743e-01 8.62e-01 3.05e+04  -1.0 1.63e+05    -  5.31e-01 1.02e-02h  1
   3  3.1323806e+00 6.49e-01 2.59e+04  -1.0 2.03e+05    -  5.45e-01 2.75e-01h  1
   4  1.9552720e+01 1.52e-01 3.90e+03  -1.0 1.57e+05    -  7.50e-01 9.90e-01h  1
   5  2.1938937e+01 1.18e-02 2.14e+02  -1.0 1.49e+04    -  9.05e-01 9.90e-01h  1
   6  2.1981885e+01 1.87e-04 2.31e+01  -1.0 3.65e+02    -  9.90e-01 9.90e-01h  1
   7  2.1983413e+01 1.81e-04 1.91e+07  -1.0 7.60e+02    -  9.90e-01 3.09e-02f  6
   8  2.2002922e+01 1.70e-04 3.25e+07  -1.0 4.88e+03    -  7.71e-01 6.19e-02f  5
   9  2.2135803e+01 1.56e-04 3.44e+05  -1.0 2.08e+03    -  9.91e-01 9.90e-01H  1
iter    objective    inf_pr   inf_du lg(mu)  ||d||  lg(rg) alpha_du alpha_pr  ls
  10  2.2220351e+01 3.13e-05 2.19e+07  -1.0 1.31e+03    -  1.00e+00 9.90e-01H  1
  11  2.2200427e+01 1.30e-05 2.19e+09  -1.0 3.09e+02    -  1.00e+00 9.90e-01h  1
  12  2.2199029e+01 1.76e-07 2.19e+11  -1.0 2.17e+01    -  1.00e+00 9.90e-01h  1
In iteration 12, 31 Slacks too small, adjusting variable bounds
  13  2.2199010e+01 1.77e-09 2.19e+13  -1.0 2.95e-01    -  1.00e+00 9.90e-01h  1
  14  2.2199010e+01 2.89e-12 1.13e-01  -1.0 2.96e-03    -  1.00e+00 1.00e+00h  1
  15  2.2198799e+01 1.55e-09 2.21e+13  -9.0 5.12e+03    -  9.91e-01 6.31e-04f 11
  16  2.2198746e+01 1.65e-09 2.23e+13  -9.0 3.92e+03    -  9.94e-01 2.06e-04f 13
  17  2.2198694e+01 1.74e-09 2.23e+13  -9.0 3.58e+03    -  9.97e-01 2.25e-04f 13
  18  2.2198668e+01 1.77e-09 2.23e+13  -9.0 3.45e+03    -  1.00e+00 1.17e-04f 14
  19  2.2198641e+01 1.79e-09 2.23e+13  -9.0 3.38e+03    -  1.00e+00 1.19e-04f 14
iter    objective    inf_pr   inf_du lg(mu)  ||d||  lg(rg) alpha_du alpha_pr  ls
  20  2.1984533e+01 2.55e-03 2.73e+11  -9.0 3.35e+03    -  1.00e+00 9.88e-01f  1
  21  2.1981680e+01 1.46e-06 1.17e-02  -9.0 4.03e+01    -  1.00e+00 1.00e+00h  1
  22  2.1981680e+01 3.66e-12 1.27e-08  -9.0 1.07e-03    -  1.00e+00 1.00e+00h  1

Number of Iterations....: 22

                                   (scaled)                 (unscaled)
Objective...............:   2.1981679535287427e+01    2.1981679535287427e+01
Dual infeasibility......:   1.2658133114779389e-08    1.2658133114779389e-08
Constraint violation....:   3.6590730445595909e-12    3.6590730445595909e-12
Complementarity.........:   1.1171184509812071e-09    1.1171184509812071e-09
Overall NLP error.......:   9.7396363868169966e-11    1.2658133114779389e-08


Number of objective function evaluations             = 114
Number of objective gradient evaluations             = 23
Number of equality constraint evaluations            = 114
Number of inequality constraint evaluations          = 0
Number of equality constraint Jacobian evaluations   = 23
Number of inequality constraint Jacobian evaluations = 0
Number of Lagrangian Hessian evaluations             = 22
Total CPU secs in IPOPT (w/o function evaluations)   =      0.034
Total CPU secs in NLP function evaluations           =      0.745

EXIT: Optimal Solution Found.
